proyfinal/src/viki/013/andrea/andrea-localstore/experimentInOfficeAgust.take6/worker_10/dfdbc4b8-9434-4c45-b161-83e403ae5124.als.cnf.out
Reading from standard input... Use '--help' for help.
============================[ Problem Statistics ]=============================
|                                                                             |
|  Number of variables:         87638                                         |
|  Number of clauses:          161767                                         |
|  Parse time:                   0.04 s                                       |
|                                                                             |
============================[ Search Statistics ]==============================
| Conflicts |          ORIGINAL         |          LEARNT          | Progress |
|           |    Vars  Clauses Literals |    Limit  Clauses Lit/Cl |          |
===============================================================================
|       100 |   63850   110456   276017 |    40500      100     10 | 27.143 % |
|       250 |   63850   110456   276017 |    44550      250     26 | 27.143 % |
|       475 |   63850   110456   276017 |    49005      475     89 | 27.143 % |
|       812 |   63850   110456   276017 |    53906      812     69 | 27.143 % |
|      1318 |   63850   110456   276017 |    59296     1318     84 | 27.143 % |
|      2077 |   63849   110412   275927 |    65226     2075     96 | 27.145 % |
|      3216 |   63849   110412   275927 |    71749     3214     80 | 27.145 % |
|      4924 |   63849   110412   275927 |    78924     4922     81 | 27.145 % |
|      7486 |   63801   110218   275477 |    86816     7479     80 | 27.200 % |
|     11330 |   63752   110022   275016 |    95498    10696     94 | 27.255 % |
|     17096 |   52865    77217   194287 |   105047    15884     92 | 39.678 % |
===============================================================================
restarts              : 63
conflicts             : 17630          (6125 /sec)
decisions             : 63749          (0.00 % random) (22147 /sec)
propagations          : 26744416       (9291091 /sec)
conflict literals     : 1588510        (48.73 % deleted)
Memory used           : 39.16 MB
CPU time              : 2.8785 s

INDETERMINATE
